
(set-logic BV)

(define-fun shr1 ((x (BitVec 64))) (BitVec 64) (bvlshr x #x0000000000000001))
(define-fun shr4 ((x (BitVec 64))) (BitVec 64) (bvlshr x #x0000000000000004))
(define-fun shr16 ((x (BitVec 64))) (BitVec 64) (bvlshr x #x0000000000000010))
(define-fun shl1 ((x (BitVec 64))) (BitVec 64) (bvshl x #x0000000000000001))
(define-fun if0 ((x (BitVec 64)) (y (BitVec 64)) (z (BitVec 64))) (BitVec 64) (ite (= x #x0000000000000001) y z))
(define-fun func23  ((A (BitVec 64)) (B (BitVec 64)) (C (BitVec 64)) (D (BitVec 64)) ) (BitVec 64) (bvand (bvlshr (bvlshr C  D ) B ) A ))
(define-fun func24  ((A (BitVec 64)) (B (BitVec 64)) (C (BitVec 64)) ) (BitVec 64) (bvand (bvlshr B  C ) A ))
(define-fun func25  ((A (BitVec 64)) (B (BitVec 64)) ) (BitVec 64) (bvand (bvlshr B  #x0000000000000001 ) A ))
(define-fun func26  ((A (BitVec 64)) (B (BitVec 64)) ) (BitVec 64) (bvand (bvlshr B  #x0000000000000010 ) A ))
(define-fun func27  ((A (BitVec 64)) (B (BitVec 64)) ) (BitVec 64) (bvand (bvlshr B  #x0000000000000004 ) A ))
(define-fun func28  ((A (BitVec 64)) (B (BitVec 64)) ) (BitVec 64) (bvand (bvlshr A  B ) #x0000000000000001 ))
(define-fun func29  ((A (BitVec 64)) ) (BitVec 64) (bvand A  #x0000000000000001 ))
(define-fun func30  ((A (BitVec 64)) (B (BitVec 64)) (C (BitVec 64)) (D (BitVec 64)) ) (BitVec 64) (bvlshr (bvlshr (bvlshr C  D ) B ) A ))
(define-fun func31  ((A (BitVec 64)) (B (BitVec 64)) (C (BitVec 64)) ) (BitVec 64) (bvlshr (bvlshr (bvlshr C  #x0000000000000010 ) B ) A ))
(define-fun func32  ((A (BitVec 64)) (B (BitVec 64)) (C (BitVec 64)) ) (BitVec 64) (bvlshr (bvlshr B  C ) A ))
(define-fun func33  ((A (BitVec 64)) (B (BitVec 64)) ) (BitVec 64) (bvlshr (bvlshr B  #x0000000000000010 ) A ))
(define-fun func34  ((A (BitVec 64)) (B (BitVec 64)) ) (BitVec 64) (bvlshr (bvlshr B  #x0000000000000004 ) A ))
(define-fun func35  ((A (BitVec 64)) (B (BitVec 64)) ) (BitVec 64) (bvlshr (bvlshr B  #x0000000000000001 ) A ))
(define-fun func36  ((A (BitVec 64)) (B (BitVec 64)) ) (BitVec 64) (bvlshr (bvlshr A  B ) #x0000000000000001 ))
(define-fun func37  ((A (BitVec 64)) (B (BitVec 64)) ) (BitVec 64) (bvlshr (bvlshr A  B ) #x0000000000000004 ))
(define-fun func38  ((A (BitVec 64)) (B (BitVec 64)) ) (BitVec 64) (bvlshr A  B ))
(define-fun func39  ((A (BitVec 64)) (B (BitVec 64)) (C (BitVec 64)) ) (BitVec 64) (bvlshr (bvshl B  C ) A ))
(define-fun func40  ((A (BitVec 64)) (B (BitVec 64)) ) (BitVec 64) (bvlshr (bvshl B  #x0000000000000001 ) A ))
(define-fun func41  ((A (BitVec 64)) (B (BitVec 64)) ) (BitVec 64) (bvlshr (bvshl A  B ) #x0000000000000004 ))
(define-fun func42  ((A (BitVec 64)) (B (BitVec 64)) (C (BitVec 64)) ) (BitVec 64) (bvlshr (bvadd B  C ) A ))
(define-fun func43  ((A (BitVec 64)) (B (BitVec 64)) ) (BitVec 64) (bvlshr (bvnot B ) A ))
(define-fun func44  ((A (BitVec 64)) ) (BitVec 64) (bvlshr (bvnot A ) #x0000000000000010 ))
(define-fun func45  ((A (BitVec 64)) (B (BitVec 64)) (C (BitVec 64)) ) (BitVec 64) (bvor (bvlshr B  C ) A ))
(define-fun func46  ((A (BitVec 64)) ) (BitVec 64) (bvor A  #x0000000000000001 ))
(define-fun func47  ((A (BitVec 64)) (B (BitVec 64)) (C (BitVec 64)) ) (BitVec 64) (bvshl (bvlshr B  C ) A ))
(define-fun func48  ((A (BitVec 64)) (B (BitVec 64)) ) (BitVec 64) (bvshl (bvlshr B  #x0000000000000001 ) A ))
(define-fun func49  ((A (BitVec 64)) (B (BitVec 64)) ) (BitVec 64) (bvshl (bvlshr A  B ) #x0000000000000001 ))
(define-fun func51  ((A (BitVec 64)) (B (BitVec 64)) (C (BitVec 64)) ) (BitVec 64) (bvshl (bvshl B  C ) A ))
(define-fun func52  ((A (BitVec 64)) (B (BitVec 64)) ) (BitVec 64) (bvshl (bvshl B  #x0000000000000001 ) A ))
(define-fun func53  ((A (BitVec 64)) (B (BitVec 64)) ) (BitVec 64) (bvshl (bvshl A  B ) #x0000000000000001 ))
(define-fun func54  ((A (BitVec 64)) (B (BitVec 64)) (C (BitVec 64)) ) (BitVec 64) (bvadd (bvlshr B  C ) A ))
(define-fun func55  ((A (BitVec 64)) ) (BitVec 64) (bvadd A  #x0000000000000001 ))
(define-fun func56  ((A (BitVec 64)) (B (BitVec 64)) (C (BitVec 64)) ) (BitVec 64) (bvadd (bvshl B  C ) A ))
(define-fun func57  ((A (BitVec 64)) (B (BitVec 64)) ) (BitVec 64) (bvadd (bvshl B  #x0000000000000001 ) A ))
(define-fun func58  ((A (BitVec 64)) ) (BitVec 64) (bvnot (bvshl A  #x0000000000000001 )))
(synth-fun f ( (x (BitVec 64))) (BitVec 64)
(
(Start (BitVec 64) (
   #x0000000000000000
   #x0000000000000001
   x
   (func23 Start Start Start Start)
   (func24 Start Start Start)
   (func25 Start Start)
   (func29 Start)
   (func33 Start Start)
   (func34 Start Start)
   (func35 Start Start)
   (func38 Start Start)
   (func43 Start Start)
   (func44 Start)
   (func45 Start Start Start)
   (func46 Start)
   (func47 Start Start Start)
   (func48 Start Start)
   (func49 Start Start)
   (func52 Start Start)
   (func53 Start Start)
   (func56 Start Start Start)
   (func57 Start Start)
   (bvnot Start)
   (shl1 Start)
   (shr1 Start)
   (shr4 Start)
   (shr16 Start)
   (bvand Start Start)
   (bvor Start Start)
   (bvxor Start Start)
   (bvadd Start Start)
   (if0 Start Start Start)
))
))
(constraint (= (f #xf2102ec7e6089c60) #x1bdfa27033eec73c))
(constraint (= (f #x18543d1a2d30c2fc) #xcf5785cba59e7a04))
(constraint (= (f #x62bc04d6a2ca06f4) #x3a87f652ba6bf214))
(constraint (= (f #x4474d08637aa3384) #x77165ef390ab98f4))
(constraint (= (f #xfbf8c5f819d6821c) #x080e740fcc52fbc4))
(constraint (= (f #xccccccccccccccce) #x6666666666666660))
(constraint (= (f #x133ac5d94340a29b) #xd98a744d797ebaca))
(constraint (= (f #xe470aa906f9234e5) #x371eaadf20db9636))
(constraint (= (f #x216058bb2598ba8d) #xbd3f4e89b4ce8ae6))
(constraint (= (f #x3e3f38e714900fc9) #x83818e31d6dfe06e))
(constraint (= (f #x0760f14ff8ae493b) #xf13e1d600ea36d8a))
(constraint (= (f #xece60c98fe1b2528) #x0000ece60c98fe1b))
(constraint (= (f #x9755138456dff256) #x00009755138456df))
(constraint (= (f #xfe79f6789d17f3ec) #x0000fe79f6789d17))
(constraint (= (f #xb4258dad6fb1ea84) #x0000b4258dad6fb1))
(constraint (= (f #x195c2e4b1a07eb94) #x0000195c2e4b1a07))
(constraint (= (f #x90067a2ae9cda79d) #x000090070a3163f8))
(constraint (= (f #x911869835493490f) #x00009118fa9bbe16))
(constraint (= (f #x0c37e64166f9e755) #x00000c37f2794d3b))
(constraint (= (f #x753159a6f177fab9) #x00007531ced84b1e))
(constraint (= (f #xa71ffd8445d73f01) #x0000a720a4a4435b))
(constraint (= (f #x0000000000000001) #xfffffffffffffffe))
(constraint (= (f #x9bb34f589fc10f00) #x00009bb34f589fc1))
(constraint (= (f #x816398bc73e73c62) #x0000816398bc73e7))
(constraint (= (f #x57a0b20ed7fd3fa9) #x000057a109af8a0c))
(constraint (= (f #xd21a5df619e0d61b) #x5bcb4413cc3e53ca))
(constraint (= (f #x086a52dc85232383) #x0000086a5b46d7ff))
(constraint (= (f #x15550c4af361af0c) #x000015550c4af361))
(constraint (= (f #xdaab2571f047ce7d) #x0000daac001d15b9))
(constraint (= (f #x41c0ecdacc73f462) #x000041c0ecdacc73))
(constraint (= (f #xca9d9624ae419f14) #x0000ca9d9624ae41))
(constraint (= (f #x8b965647f8926063) #xe8d353700edb3f3a))
(constraint (= (f #x0000000000000001) #xfffffffffffffffe))
(constraint (= (f #xebecee60f73e276a) #x2826233e1183b128))
(constraint (= (f #xccccccccccccccce) #x6666666666666660))
(check-synth)
